language Essence 1.3

letting hosts be {1, 2, 3, 4, 5, 6}
letting sched be
        {function(1 --> 1, 2 --> 2, 3 --> 3, 4 --> 4, 5 --> 5, 6 --> 6, 7 --> 1, 8 --> 2, 9 --> 2, 10 --> 2),
         function(1 --> 1, 2 --> 2, 3 --> 3, 4 --> 4, 5 --> 5, 6 --> 6, 7 --> 2, 8 --> 1, 9 --> 3, 10 --> 4),
         function(1 --> 1, 2 --> 2, 3 --> 3, 4 --> 4, 5 --> 5, 6 --> 6, 7 --> 3, 8 --> 3, 9 --> 1, 10 --> 5),
         function(1 --> 1, 2 --> 2, 3 --> 3, 4 --> 4, 5 --> 5, 6 --> 6, 7 --> 4, 8 --> 5, 9 --> 4, 10 --> 1),
         function(1 --> 1, 2 --> 2, 3 --> 3, 4 --> 4, 5 --> 5, 6 --> 6, 7 --> 5, 8 --> 4, 9 --> 6, 10 --> 3)}
$ Visualisation for sched
$ 1 2 3 4 5 6 1 2 2 2
$ 1 2 3 4 5 6 2 1 3 4
$ 1 2 3 4 5 6 3 3 1 5
$ 1 2 3 4 5 6 4 5 4 1
$ 1 2 3 4 5 6 5 4 6 3

